Problem:    Pro303
Rows:       39
Columns:    24 (24 integer, 9 binary)
Non-zeros:  96
Status:     INTEGER OPTIMAL
Objective:  vols_totals = 23 (MAXimum)

   No.   Row name        Activity     Lower bound   Upper bound
------ ------------    ------------- ------------- -------------
     1 vols_totals                23                             
     2 r_nodes_diferencia[B]
                                   0            -0             = 
     3 r_nodes_diferencia[C]
                                   0            -0             = 
     4 r_nodes_diferencia[D]
                                   0            -0             = 
     5 r_nodes_diferencia[E]
                                   0            -0             = 
     6 r_nodes_diferencia[F]
                                   0            -0             = 
     7 r_nodes_diferencia[G]
                                   0            -0             = 
     8 r_nodes_diferencia[H]
                                   0            -0             = 
     9 r_vols_max1[A,B]
                                 -12                          -0 
    10 r_vols_max1[A,E]
                                  -5                          -0 
    11 r_vols_max1[A,G]
                                   0                          -0 
    12 r_vols_max1[B,C]
                                   0                          -0 
    13 r_vols_max1[C,D]
                                  -7                          -0 
    14 r_vols_max1[C,F]
                                 -10                          -0 
    15 r_vols_max1[D,I]
                                  -1                          -0 
    16 r_vols_max1[E,C]
                                   0                          -0 
    17 r_vols_max1[F,D]
                                  -6                          -0 
    18 r_vols_max1[F,I]
                                 -14                          -0 
    19 r_vols_max1[G,E]
                                  -6                          -0 
    20 r_vols_max1[G,H]
                                   0                          -0 
    21 r_vols_max1[H,E]
                                  -8                          -0 
    22 r_vols_max1[H,F]
                                   0                          -0 
    23 r_vols_max1[H,I]
                                  -4                          -0 
    24 r_vols_max2[A,B]
                                   0                          -0 
    25 r_vols_max2[A,E]
                                  -5                          -0 
    26 r_vols_max2[A,G]
                                   0                          -0 
    27 r_vols_max2[B,C]
                                  -9                          -0 
    28 r_vols_max2[C,D]
                                  -7                          -0 
    29 r_vols_max2[C,F]
                                 -10                          -0 
    30 r_vols_max2[D,I]
                                  -1                          -0 
    31 r_vols_max2[E,C]
                                   0                          -0 
    32 r_vols_max2[F,D]
                                  -6                          -0 
    33 r_vols_max2[F,I]
                                 -14                          -0 
    34 r_vols_max2[G,E]
                                  -6                          -0 
    35 r_vols_max2[G,H]
                                   0                          -0 
    36 r_vols_max2[H,E]
                                  -8                          -0 
    37 r_vols_max2[H,F]
                                   0                          -0 
    38 r_vols_max2[H,I]
                                  -4                          -0 
    39 r_nodes_total
                                   8             8             = 

   No. Column name       Activity     Lower bound   Upper bound
------ ------------    ------------- ------------- -------------
     1 x[A,B]       *              0             0               
     2 x[A,E]       *             10             0               
     3 x[A,G]       *             13             0               
     4 x[B,C]       *              0             0               
     5 x[C,D]       *             11             0               
     6 x[C,F]       *              0             0               
     7 x[E,C]       *             11             0               
     8 x[D,I]       *             11             0               
     9 x[F,D]       *              0             0               
    10 x[G,E]       *              1             0               
    11 x[H,E]       *              0             0               
    12 x[F,I]       *              6             0               
    13 x[H,F]       *              6             0               
    14 x[G,H]       *             12             0               
    15 x[H,I]       *              6             0               
    16 y[A]         *              1             0             1 
    17 y[B]         *              0             0             1 
    18 y[C]         *              1             0             1 
    19 y[D]         *              1             0             1 
    20 y[E]         *              1             0             1 
    21 y[F]         *              1             0             1 
    22 y[G]         *              1             0             1 
    23 y[H]         *              1             0             1 
    24 y[I]         *              1             0             1 

Integer feasibility conditions:

KKT.PE: max.abs.err = 0.00e+00 on row 0
        max.rel.err = 0.00e+00 on row 0
        High quality

KKT.PB: max.abs.err = 0.00e+00 on row 0
        max.rel.err = 0.00e+00 on row 0
        High quality

End of output
